
Gurobi 11.0.3 (linux64) logging started Thu Apr 16 21:15:33 2026

Set parameter LogFile to value "tree/results/ctmc/ctmc_depth-3_run-1/Full MIP/LogFile_FullModel.txt"
Gurobi Optimizer version 11.0.3 build v11.0.3rc0 (linux64 - "CentOS Linux 7 (Core)")

CPU model: Intel(R) Xeon(R) Platinum 8260 CPU @ 2.40GHz, instruction set [SSE2|AVX|AVX2|AVX512]
Thread count: 96 physical cores, 192 logical processors, using up to 32 threads

Optimize a model with 88709 rows, 62111 columns and 1073381 nonzeros
Model fingerprint: 0x69856e4b
Model has 8832 general constraints
Variable types: 35514 continuous, 26597 integer (26597 binary)
Coefficient statistics:
  Matrix range     [9e-04, 1e+04]
  Objective range  [9e-04, 1e+04]
  Bounds range     [1e+00, 1e+03]
  RHS range        [1e-04, 1e+03]

User MIP start produced solution with objective -10699.5 (0.31s)
Loaded user MIP start with objective -10699.5

Presolve added 8824 rows and 26496 columns
Presolve time: 1.72s
Presolved: 97533 rows, 88607 columns, 1126421 nonzeros
Presolved model has 26496 SOS constraint(s)
Variable types: 35514 continuous, 53093 integer (53093 binary)

Deterministic concurrent LP optimizer: primal simplex, dual simplex, and barrier
Showing barrier log only...

Root relaxation presolved: 97533 rows, 88607 columns, 1126421 nonzeros

Root barrier log...

Ordering time: 0.08s

Barrier statistics:
 Dense cols : 84
 AA' NZ     : 1.107e+06
 Factor NZ  : 3.467e+06 (roughly 100 MB of memory)
 Factor Ops : 1.353e+08 (less than 1 second per iteration)
 Threads    : 30

                  Objective                Residual
Iter       Primal          Dual         Primal    Dual     Compl     Time
   0  -8.24023029e+04  1.70021710e+09  1.10e+04 0.00e+00  8.05e+05     4s
   1  -2.52501521e+04  2.55767313e+09  1.18e+03 3.96e+01  1.80e+05     4s
   2  -7.76899428e+03  2.16091735e+09  1.19e+02 5.83e+00  2.57e+04     4s
   3  -5.63945646e+03  5.92482773e+08  1.17e+01 5.82e-01  3.76e+03     5s
   4  -1.91459703e+03  8.08082148e+07  1.16e+00 6.75e-02  4.63e+02     5s
   5  -1.96662035e+02  9.41760865e+06  1.15e-01 6.70e-03  5.11e+01     5s
   6  -1.90076289e+01  9.51899293e+05  1.15e-02 6.73e-04  5.11e+00     5s
   7  -1.23270382e+00  9.89665577e+04  1.17e-03 6.94e-05  5.30e-01     5s
   8   6.12550582e-01  1.43259874e+04  1.52e-04 1.00e-05  7.67e-02     6s
   9   9.61497116e-01  1.51458259e+03  3.92e-05 9.86e-07  8.08e-03     6s
  10   9.96149556e-01  1.53379010e+02  3.91e-06 9.92e-08  8.14e-04     6s
  11   9.99614845e-01  1.63805966e+01  3.87e-07 9.93e-09  8.21e-05     6s
  12   9.99961484e-01  2.53806844e+00  3.87e-08 9.93e-10  8.21e-06     7s
  13   9.99996148e-01  1.15524712e+00  3.84e-09 9.94e-11  8.28e-07     7s
  14   9.99999615e-01  1.01552471e+00  3.84e-10 9.94e-12  8.28e-08     7s
  15   9.99999961e-01  1.00156701e+00  3.83e-11 9.95e-13  8.35e-09     7s
  16   9.99999996e-01  1.00015670e+00  3.95e-12 9.95e-14  8.35e-10     8s
  17   1.00000000e+00  1.00001567e+00  5.97e-13 1.42e-14  8.35e-11     8s
  18   1.00000000e+00  1.00000157e+00  4.26e-13 9.95e-16  8.35e-12     8s
  19   1.00000000e+00  1.00000016e+00  3.98e-13 9.95e-17  8.35e-13     8s
  20   1.00000000e+00  1.00000002e+00  4.12e-13 9.96e-18  8.35e-14     9s

Barrier solved model in 20 iterations and 8.73 seconds (5.80 work units)
Optimal objective 1.00000000e+00


Root crossover log...

    5138 DPushes remaining with DInf 0.0000000e+00                 9s
       0 DPushes remaining with DInf 0.0000000e+00                 9s

   32777 PPushes remaining with PInf 0.0000000e+00                 9s
       0 PPushes remaining with PInf 0.0000000e+00                 9s

  Push phase complete: Pinf 0.0000000e+00, Dinf 0.0000000e+00      9s


Root simplex log...

Iteration    Objective       Primal Inf.    Dual Inf.      Time
   32781    1.0000000e+00   0.000000e+00   0.000000e+00     10s
   32781    1.0000000e+00   0.000000e+00   0.000000e+00     10s
Concurrent spin time: 1.68s (can be avoided by choosing Method=3)

Solved with barrier

Root relaxation: objective 1.000000e+00, 32781 iterations, 7.14 seconds (4.16 work units)
Total elapsed time = 28.74s (DegenMoves)

    Nodes    |    Current Node    |     Objective Bounds      |     Work
 Expl Unexpl |  Obj  Depth IntInf | Incumbent    BestBd   Gap | It/Node Time

     0     0    1.00000    0 6916 -10699.458    1.00000   100%     -   29s
     0     2    1.00000    0 6916 -10699.458    1.00000   100%     -  124s
H    1     4                    -10699.45832    1.00000   100%  7480  233s
     3     8    1.00000    2 5749 -10699.458    1.00000   100%  6791  299s
     7    16    1.00000    3 5749 -10699.458    1.00000   100%  2912  304s
    15    32    1.00000    4 5749 -10699.458    1.00000   100%  1465  377s
H   31    64                       0.4474638    1.00000   123%  2160  456s
    95   128    1.00000    7 6013    0.44746    1.00000   123%   797  750s
   159   192    1.00000    9 6173    0.44746    1.00000   123%   537  768s
   191   224    1.00000   10 6211    0.44746    1.00000   123%   503  926s
   223   256    1.00000   11 6306    0.44746    1.00000   123%  1378 1074s
   255   307    1.00000   12 6401    0.44746    1.00000   123%  1228 2023s
H  277   307                       0.5072464    1.00000  97.1%  1153 2024s
   306   527    1.00000   13 3510    0.50725    1.00000  97.1%  1103 2998s
   526   976    1.00000   14 3654    0.50725    1.00000  97.1%  1204 3600s

Explored 975 nodes (947383 simplex iterations) in 3600.45 seconds (5223.43 work units)
Thread count was 32 (of 192 available processors)

Solution count 4: 0.507246 0.447464 -10699.5 -10699.5 

Time limit reached
Best objective 5.072463768116e-01, best bound 1.000000000000e+00, gap 97.1429%

User-callback calls 1681797, time in user-callback 8.70 sec
